certificates/rado_a11_c40_N34.cnf
c Rad2 upper bound instance: x1 + 11*x2 - x3 = 40, interval [1,34]
p cnf 34 210
1 4 5 0
-1 -4 -5 0
1 5 16 0
-1 -5 -16 0
1 6 27 0
-1 -6 -27 0
2 4 6 0
-2 -4 -6 0
2 5 17 0
-2 -5 -17 0
2 6 28 0
-2 -6 -28 0
3 4 7 0
-3 -4 -7 0
3 5 18 0
-3 -5 -18 0
3 6 29 0
-3 -6 -29 0
4 8 0
-4 -8 0
4 5 19 0
-4 -5 -19 0
4 6 30 0
-4 -6 -30 0
4 5 9 0
-4 -5 -9 0
5 20 0
-5 -20 0
5 6 31 0
-5 -6 -31 0
4 6 10 0
-4 -6 -10 0
5 6 21 0
-5 -6 -21 0
6 32 0
-6 -32 0
4 7 11 0
-4 -7 -11 0
5 7 22 0
-5 -7 -22 0
6 7 33 0
-6 -7 -33 0
1 3 8 0
-1 -3 -8 0
4 8 12 0
-4 -8 -12 0
5 8 23 0
-5 -8 -23 0
6 8 34 0
-6 -8 -34 0
2 3 9 0
-2 -3 -9 0
4 9 13 0
-4 -9 -13 0
5 9 24 0
-5 -9 -24 0
3 10 0
-3 -10 0
4 10 14 0
-4 -10 -14 0
5 10 25 0
-5 -10 -25 0
3 4 11 0
-3 -4 -11 0
4 11 15 0
-4 -11 -15 0
5 11 26 0
-5 -11 -26 0
3 5 12 0
-3 -5 -12 0
4 12 16 0
-4 -12 -16 0
5 12 27 0
-5 -12 -27 0
3 6 13 0
-3 -6 -13 0
4 13 17 0
-4 -13 -17 0
5 13 28 0
-5 -13 -28 0
3 7 14 0
-3 -7 -14 0
4 14 18 0
-4 -14 -18 0
5 14 29 0
-5 -14 -29 0
3 8 15 0
-3 -8 -15 0
4 15 19 0
-4 -15 -19 0
5 15 30 0
-5 -15 -30 0
3 9 16 0
-3 -9 -16 0
4 16 20 0
-4 -16 -20 0
5 16 31 0
-5 -16 -31 0
3 10 17 0
-3 -10 -17 0
4 17 21 0
-4 -17 -21 0
5 17 32 0
-5 -17 -32 0
3 11 18 0
-3 -11 -18 0
4 18 22 0
-4 -18 -22 0
5 18 33 0
-5 -18 -33 0
1 2 19 0
-1 -2 -19 0
3 12 19 0
-3 -12 -19 0
4 19 23 0
-4 -19 -23 0
5 19 34 0
-5 -19 -34 0
2 20 0
-2 -20 0
3 13 20 0
-3 -13 -20 0
4 20 24 0
-4 -20 -24 0
2 3 21 0
-2 -3 -21 0
3 14 21 0
-3 -14 -21 0
4 21 25 0
-4 -21 -25 0
2 4 22 0
-2 -4 -22 0
3 15 22 0
-3 -15 -22 0
4 22 26 0
-4 -22 -26 0
2 5 23 0
-2 -5 -23 0
3 16 23 0
-3 -16 -23 0
4 23 27 0
-4 -23 -27 0
2 6 24 0
-2 -6 -24 0
3 17 24 0
-3 -17 -24 0
4 24 28 0
-4 -24 -28 0
2 7 25 0
-2 -7 -25 0
3 18 25 0
-3 -18 -25 0
4 25 29 0
-4 -25 -29 0
2 8 26 0
-2 -8 -26 0
3 19 26 0
-3 -19 -26 0
4 26 30 0
-4 -26 -30 0
2 9 27 0
-2 -9 -27 0
3 20 27 0
-3 -20 -27 0
4 27 31 0
-4 -27 -31 0
2 10 28 0
-2 -10 -28 0
3 21 28 0
-3 -21 -28 0
4 28 32 0
-4 -28 -32 0
2 11 29 0
-2 -11 -29 0
3 22 29 0
-3 -22 -29 0
4 29 33 0
-4 -29 -33 0
1 30 0
-1 -30 0
2 12 30 0
-2 -12 -30 0
3 23 30 0
-3 -23 -30 0
4 30 34 0
-4 -30 -34 0
1 2 31 0
-1 -2 -31 0
2 13 31 0
-2 -13 -31 0
3 24 31 0
-3 -24 -31 0
1 3 32 0
-1 -3 -32 0
2 14 32 0
-2 -14 -32 0
3 25 32 0
-3 -25 -32 0
1 4 33 0
-1 -4 -33 0
2 15 33 0
-2 -15 -33 0
3 26 33 0
-3 -26 -33 0
1 5 34 0
-1 -5 -34 0
2 16 34 0
-2 -16 -34 0
3 27 34 0
-3 -27 -34 0
