certificates/rado_a11_c40_N34.drat
-30 -31 6 -34 0
30 6 -33 0
6 -33 -34 0
-33 -34 0
d 6 -33 -34 0
-6 5 -34 0
30 -34 0
-34 0
6 0
-32 0
4 0
-8 0
-2 0
-30 0
-10 0
26 0
20 0
12 0
16 0
14 0
1 0
3 0
28 0
-22 0
-5 0
0
